(set-logic HORN)
(set-info :source |
    Benchmark: Horn constraint system (16 clauses, 15 relation symbols)
    Generated by Eldarica (http://lara.epfl.ch/w/eldarica)
    Output by Princess (http://www.philipp.ruemmer.org/princess.shtml)
|)
(set-info :status sat)
(declare-fun predh81_4 (Int Int Int Int Int Int Int Int Int Int Int Int Int Int Int Int Int Int Int Int Int Int Int Int Int Int Int Int Int Int Int Int Int Int Int Int Int Int Int Int Int Int Int Int Int Int Int Int) Bool)
(declare-fun predh89_2 (Int Int Int Int Int Int Int Int Int Int Int Int Int Int Int Int Int Int Int Int Int Int Int Int Int Int Int Int Int Int Int Int Int Int Int Int Int Int Int Int Int Int Int Int Int Int Int Int) Bool)
(declare-fun predh44_12 (Int Int Int Int Int Int Int Int Int Int Int Int Int Int Int Int Int Int Int Int Int Int Int Int Int Int Int Int Int Int Int Int Int Int Int Int Int Int Int Int Int Int Int Int Int Int Int Int) Bool)
(declare-fun predh38_14 (Int Int Int Int Int Int Int Int Int Int Int Int Int Int Int Int Int Int Int Int Int Int Int Int Int Int Int Int Int Int Int Int Int Int Int Int Int Int Int Int Int Int Int Int Int Int Int Int) Bool)
(declare-fun predh41_13 (Int Int Int Int Int Int Int Int Int Int Int Int Int Int Int Int Int Int Int Int Int Int Int Int Int Int Int Int Int Int Int Int Int Int Int Int Int Int Int Int Int Int Int Int Int Int Int Int) Bool)
(declare-fun predh59_9 (Int Int Int Int Int Int Int Int Int Int Int Int Int Int Int Int Int Int Int Int Int Int Int Int Int Int Int Int Int Int Int Int Int Int Int Int Int Int Int Int Int Int Int Int Int Int Int Int) Bool)
(declare-fun predh6_15 (Int Int Int Int Int Int Int Int Int Int Int Int Int Int Int Int Int Int Int Int Int Int Int Int Int Int Int Int Int Int Int Int Int Int Int Int Int Int Int Int Int Int Int Int Int Int Int Int) Bool)
(declare-fun predh107_1 (Int Int Int Int Int Int Int Int Int Int Int Int Int Int Int Int Int Int Int Int Int Int Int Int Int Int Int Int Int Int Int Int Int Int Int Int Int Int Int Int Int Int Int Int Int Int Int Int) Bool)
(declare-fun predh47_11 (Int Int Int Int Int Int Int Int Int Int Int Int Int Int Int Int Int Int Int Int Int Int Int Int Int Int Int Int Int Int Int Int Int Int Int Int Int Int Int Int Int Int Int Int Int Int Int Int) Bool)
(declare-fun predh52_5 (Int Int Int Int Int Int Int Int Int Int Int Int Int Int Int Int Int Int Int Int Int Int Int Int Int Int Int Int Int Int Int Int Int Int Int Int Int Int Int Int Int Int Int Int Int Int Int Int) Bool)
(declare-fun predh62_8 (Int Int Int Int Int Int Int Int Int Int Int Int Int Int Int Int Int Int Int Int Int Int Int Int Int Int Int Int Int Int Int Int Int Int Int Int Int Int Int Int Int Int Int Int Int Int Int Int) Bool)
(declare-fun predh65_7 (Int Int Int Int Int Int Int Int Int Int Int Int Int Int Int Int Int Int Int Int Int Int Int Int Int Int Int Int Int Int Int Int Int Int Int Int Int Int Int Int Int Int Int Int Int Int Int Int) Bool)
(declare-fun predh52_10 (Int Int Int Int Int Int Int Int Int Int Int Int Int Int Int Int Int Int Int Int Int Int Int Int Int Int Int Int Int Int Int Int Int Int Int Int Int Int Int Int Int Int Int Int Int Int Int Int) Bool)
(declare-fun predh84_3 (Int Int Int Int Int Int Int Int Int Int Int Int Int Int Int Int Int Int Int Int Int Int Int Int Int Int Int Int Int Int Int Int Int Int Int Int Int Int Int Int Int Int Int Int Int Int Int Int) Bool)
(declare-fun predh68_6 (Int Int Int Int Int Int Int Int Int Int Int Int Int Int Int Int Int Int Int Int Int Int Int Int Int Int Int Int Int Int Int Int Int Int Int Int Int Int Int Int Int Int Int Int Int Int Int Int) Bool)
(assert (forall ((var0 Int)) (forall ((var1 Int)) (forall ((var2 Int)) (forall ((var3 Int)) (forall ((var4 Int)) (forall ((var5 Int)) (forall ((var6 Int)) (forall ((var7 Int)) (forall ((var8 Int)) (forall ((var9 Int)) (forall ((var10 Int)) (forall ((var11 Int)) (forall ((var12 Int)) (forall ((var13 Int)) (forall ((var14 Int)) (forall ((var15 Int)) (forall ((var16 Int)) (forall ((var17 Int)) (forall ((var18 Int)) (forall ((var19 Int)) (forall ((var20 Int)) (forall ((var21 Int)) (forall ((var22 Int)) (forall ((var23 Int)) (forall ((var24 Int)) (forall ((var25 Int)) (forall ((var26 Int)) (forall ((var27 Int)) (forall ((var28 Int)) (forall ((var29 Int)) (forall ((var30 Int)) (forall ((var31 Int)) (forall ((var32 Int)) (forall ((var33 Int)) (forall ((var34 Int)) (forall ((var35 Int)) (forall ((var36 Int)) (forall ((var37 Int)) (forall ((var38 Int)) (forall ((var39 Int)) (forall ((var40 Int)) (forall ((var41 Int)) (forall ((var42 Int)) (forall ((var43 Int)) (forall ((var44 Int)) (forall ((var45 Int)) (forall ((var46 Int)) (forall ((var47 Int)) (not (predh107_1 var47 var46 var45 var44 var43 var42 var41 var40 var39 var38 var37 var36 var35 var34 var33 var32 var31 var30 var29 var28 var27 var26 var25 var24 var23 var22 var21 var20 var19 var18 var17 var16 var15 var14 var13 var12 var11 var10 var9 var8 var7 var6 var5 var4 var3 var2 var1 var0 ) ) ) ) ) ) ) ) ) ) ) ) ) ) ) ) ) ) ) ) ) ) ) ) ) ) ) ) ) ) ) ) ) ) ) ) ) ) ) ) ) ) ) ) ) ) ) ) ) ) )
(assert (forall ((var0 Int)) (forall ((var1 Int)) (forall ((var2 Int)) (forall ((var3 Int)) (forall ((var4 Int)) (forall ((var5 Int)) (forall ((var6 Int)) (forall ((var7 Int)) (forall ((var8 Int)) (forall ((var9 Int)) (forall ((var10 Int)) (forall ((var11 Int)) (forall ((var12 Int)) (forall ((var13 Int)) (forall ((var14 Int)) (forall ((var15 Int)) (forall ((var16 Int)) (forall ((var17 Int)) (forall ((var18 Int)) (forall ((var19 Int)) (forall ((var20 Int)) (forall ((var21 Int)) (forall ((var22 Int)) (forall ((var23 Int)) (forall ((var24 Int)) (forall ((var25 Int)) (forall ((var26 Int)) (forall ((var27 Int)) (forall ((var28 Int)) (forall ((var29 Int)) (forall ((var30 Int)) (forall ((var31 Int)) (forall ((var32 Int)) (forall ((var33 Int)) (forall ((var34 Int)) (forall ((var35 Int)) (forall ((var36 Int)) (forall ((var37 Int)) (forall ((var38 Int)) (forall ((var39 Int)) (forall ((var40 Int)) (forall ((var41 Int)) (forall ((var42 Int)) (forall ((var43 Int)) (forall ((var44 Int)) (forall ((var45 Int)) (forall ((var46 Int)) (forall ((var47 Int)) (not (and (and (and (<= 0 (+ (* (- 1) var16 ) var15 ) ) (<= 0 (+ (+ (* (- 1) var16 ) var1 ) (* (- 1) 1 ) ) ) ) (<= 0 var1 ) ) (and (predh89_2 var47 var46 var45 var44 var43 var42 var41 var40 var39 var38 var37 var36 var35 var34 var33 var32 var31 var30 var29 var28 var27 var26 var25 var24 var23 var22 var21 var20 var19 var18 var17 var16 var15 var14 var13 var12 var11 var10 var9 var8 var7 var6 var5 var4 var3 var2 var1 var0 ) (not (predh107_1 var47 var46 var45 var44 var43 var42 var41 var40 var39 var38 var37 var36 var35 var34 var33 var32 var31 var30 var29 var28 var27 var26 var25 var24 var23 var22 var21 var20 var19 var18 var17 var16 var15 var14 var13 var12 var11 var10 var9 var8 var7 var6 var5 var4 var3 var2 var1 var0 ) ) ) ) ) ) ) ) ) ) ) ) ) ) ) ) ) ) ) ) ) ) ) ) ) ) ) ) ) ) ) ) ) ) ) ) ) ) ) ) ) ) ) ) ) ) ) ) ) ) ) ) ) )
(assert (forall ((var0 Int)) (forall ((var1 Int)) (forall ((var2 Int)) (forall ((var3 Int)) (forall ((var4 Int)) (forall ((var5 Int)) (forall ((var6 Int)) (forall ((var7 Int)) (forall ((var8 Int)) (forall ((var9 Int)) (forall ((var10 Int)) (forall ((var11 Int)) (forall ((var12 Int)) (forall ((var13 Int)) (forall ((var14 Int)) (forall ((var15 Int)) (forall ((var16 Int)) (forall ((var17 Int)) (forall ((var18 Int)) (forall ((var19 Int)) (forall ((var20 Int)) (forall ((var21 Int)) (forall ((var22 Int)) (forall ((var23 Int)) (forall ((var24 Int)) (forall ((var25 Int)) (forall ((var26 Int)) (forall ((var27 Int)) (forall ((var28 Int)) (forall ((var29 Int)) (forall ((var30 Int)) (forall ((var31 Int)) (forall ((var32 Int)) (forall ((var33 Int)) (forall ((var34 Int)) (forall ((var35 Int)) (forall ((var36 Int)) (forall ((var37 Int)) (forall ((var38 Int)) (forall ((var39 Int)) (forall ((var40 Int)) (forall ((var41 Int)) (forall ((var42 Int)) (forall ((var43 Int)) (forall ((var44 Int)) (forall ((var45 Int)) (forall ((var46 Int)) (forall ((var47 Int)) (not (and (predh84_3 var47 var46 var45 var44 var43 var42 var41 var40 var39 var38 var37 var36 var35 var34 var33 var32 var31 var30 var29 var28 var27 var26 var25 var24 var23 var22 var21 var20 var19 var18 var17 var16 var15 var14 var13 var12 var11 var10 var9 var8 var7 var6 var5 var4 var3 var2 var1 var0 ) (not (predh89_2 var47 var46 var45 var44 var43 var42 var41 var40 var39 var38 var37 var36 var35 var34 var33 var32 var31 var30 var29 var28 var27 var26 var25 var24 var23 var22 var21 var20 var19 var18 var17 var16 (* 2 1 ) var14 var13 var12 var11 var10 var9 var8 var7 var6 var5 var4 var3 var2 var1 var0 ) ) ) ) ) ) ) ) ) ) ) ) ) ) ) ) ) ) ) ) ) ) ) ) ) ) ) ) ) ) ) ) ) ) ) ) ) ) ) ) ) ) ) ) ) ) ) ) ) ) ) ) )
(assert (forall ((var0 Int)) (forall ((var1 Int)) (forall ((var2 Int)) (forall ((var3 Int)) (forall ((var4 Int)) (forall ((var5 Int)) (forall ((var6 Int)) (forall ((var7 Int)) (forall ((var8 Int)) (forall ((var9 Int)) (forall ((var10 Int)) (forall ((var11 Int)) (forall ((var12 Int)) (forall ((var13 Int)) (forall ((var14 Int)) (forall ((var15 Int)) (forall ((var16 Int)) (forall ((var17 Int)) (forall ((var18 Int)) (forall ((var19 Int)) (forall ((var20 Int)) (forall ((var21 Int)) (forall ((var22 Int)) (forall ((var23 Int)) (forall ((var24 Int)) (forall ((var25 Int)) (forall ((var26 Int)) (forall ((var27 Int)) (forall ((var28 Int)) (forall ((var29 Int)) (forall ((var30 Int)) (forall ((var31 Int)) (forall ((var32 Int)) (forall ((var33 Int)) (forall ((var34 Int)) (forall ((var35 Int)) (forall ((var36 Int)) (forall ((var37 Int)) (forall ((var38 Int)) (forall ((var39 Int)) (forall ((var40 Int)) (forall ((var41 Int)) (forall ((var42 Int)) (forall ((var43 Int)) (forall ((var44 Int)) (forall ((var45 Int)) (forall ((var46 Int)) (forall ((var47 Int)) (not (and (and (<= 0 (+ (* (- 1) var16 ) var2 ) ) (<= 0 var2 ) ) (and (predh81_4 var47 var46 var45 var44 var43 var42 var41 var40 var39 var38 var37 var36 var35 var34 var33 var32 var31 var30 var29 var28 var27 var26 var25 var24 var23 var22 var21 var20 var19 var18 var17 var16 var15 var14 var13 var12 var11 var10 var9 var8 var7 var6 var5 var4 var3 var2 var1 var0 ) (not (predh84_3 var47 var46 var45 var44 var43 var42 var41 var40 var39 var38 var37 var36 var35 var34 var33 var32 var31 var30 var29 var28 var27 var26 var25 var24 var23 var22 var21 var20 var19 var18 var17 var16 var15 var14 var13 var12 var11 var10 var9 var8 var7 var6 var5 var4 var3 var2 var1 var0 ) ) ) ) ) ) ) ) ) ) ) ) ) ) ) ) ) ) ) ) ) ) ) ) ) ) ) ) ) ) ) ) ) ) ) ) ) ) ) ) ) ) ) ) ) ) ) ) ) ) ) ) ) )
(assert (forall ((var0 Int)) (forall ((var1 Int)) (forall ((var2 Int)) (forall ((var3 Int)) (forall ((var4 Int)) (forall ((var5 Int)) (forall ((var6 Int)) (forall ((var7 Int)) (forall ((var8 Int)) (forall ((var9 Int)) (forall ((var10 Int)) (forall ((var11 Int)) (forall ((var12 Int)) (forall ((var13 Int)) (forall ((var14 Int)) (forall ((var15 Int)) (forall ((var16 Int)) (forall ((var17 Int)) (forall ((var18 Int)) (forall ((var19 Int)) (forall ((var20 Int)) (forall ((var21 Int)) (forall ((var22 Int)) (forall ((var23 Int)) (forall ((var24 Int)) (forall ((var25 Int)) (forall ((var26 Int)) (forall ((var27 Int)) (forall ((var28 Int)) (forall ((var29 Int)) (forall ((var30 Int)) (forall ((var31 Int)) (forall ((var32 Int)) (forall ((var33 Int)) (forall ((var34 Int)) (forall ((var35 Int)) (forall ((var36 Int)) (forall ((var37 Int)) (forall ((var38 Int)) (forall ((var39 Int)) (forall ((var40 Int)) (forall ((var41 Int)) (forall ((var42 Int)) (forall ((var43 Int)) (forall ((var44 Int)) (forall ((var45 Int)) (forall ((var46 Int)) (forall ((var47 Int)) (not (and (and (and (and (<= 0 (+ (* (- 1) var16 ) var15 ) ) (<= 0 (+ var16 (* (- 1) var3 ) ) ) ) (<= 0 (+ (* (- 1) var3 ) (* (- 1) 1 ) ) ) ) (<= 0 (+ var2 (* (- 1) 1 ) ) ) ) (and (predh52_5 var47 var46 var45 var44 var43 var42 var41 var40 var39 var38 var37 var36 var35 var34 var33 var32 var31 var30 var29 var28 var27 var26 var25 var24 var23 var22 var21 var20 var19 var18 var17 var16 var15 var14 var13 var12 var11 var10 var9 var8 var7 var6 var5 var4 var3 var2 var1 var0 ) (not (predh81_4 var47 var46 var45 var44 var43 var42 var41 var40 var39 var38 var37 var36 var35 var34 var33 var32 var31 var30 var29 var28 var27 var26 var25 var24 var23 var22 var21 var20 var19 var18 var17 var16 var15 var14 var13 var12 var11 var10 var9 var8 var7 var6 var5 var4 var3 var2 var1 var0 ) ) ) ) ) ) ) ) ) ) ) ) ) ) ) ) ) ) ) ) ) ) ) ) ) ) ) ) ) ) ) ) ) ) ) ) ) ) ) ) ) ) ) ) ) ) ) ) ) ) ) ) ) )
(assert (forall ((var0 Int)) (forall ((var1 Int)) (forall ((var2 Int)) (forall ((var3 Int)) (forall ((var4 Int)) (forall ((var5 Int)) (forall ((var6 Int)) (forall ((var7 Int)) (forall ((var8 Int)) (forall ((var9 Int)) (forall ((var10 Int)) (forall ((var11 Int)) (forall ((var12 Int)) (forall ((var13 Int)) (forall ((var14 Int)) (forall ((var15 Int)) (forall ((var16 Int)) (forall ((var17 Int)) (forall ((var18 Int)) (forall ((var19 Int)) (forall ((var20 Int)) (forall ((var21 Int)) (forall ((var22 Int)) (forall ((var23 Int)) (forall ((var24 Int)) (forall ((var25 Int)) (forall ((var26 Int)) (forall ((var27 Int)) (forall ((var28 Int)) (forall ((var29 Int)) (forall ((var30 Int)) (forall ((var31 Int)) (forall ((var32 Int)) (forall ((var33 Int)) (forall ((var34 Int)) (forall ((var35 Int)) (forall ((var36 Int)) (forall ((var37 Int)) (forall ((var38 Int)) (forall ((var39 Int)) (forall ((var40 Int)) (forall ((var41 Int)) (forall ((var42 Int)) (forall ((var43 Int)) (forall ((var44 Int)) (forall ((var45 Int)) (forall ((var46 Int)) (forall ((var47 Int)) (not (and (predh68_6 var47 var46 var45 var44 var43 var42 var41 var40 var39 var38 var37 var36 var35 var34 var33 var32 var31 var30 var29 var28 var27 var26 var25 var24 var23 var22 var21 var20 var19 var18 var17 var16 var15 var14 var13 var12 var11 var10 var9 var8 var7 var6 var5 var4 var3 var2 var1 var0 ) (not (predh52_5 var47 var46 var45 var44 var43 var42 var41 var40 var39 var38 var37 var36 var35 var34 var33 var32 var31 var30 var29 var28 var27 var26 var25 var24 var23 var22 var21 var20 var19 var18 var17 var16 (+ var15 1 ) var14 var13 var12 var11 var10 var9 var8 var7 var6 var5 var4 var3 var2 var1 var0 ) ) ) ) ) ) ) ) ) ) ) ) ) ) ) ) ) ) ) ) ) ) ) ) ) ) ) ) ) ) ) ) ) ) ) ) ) ) ) ) ) ) ) ) ) ) ) ) ) ) ) ) )
(assert (forall ((var0 Int)) (forall ((var1 Int)) (forall ((var2 Int)) (forall ((var3 Int)) (forall ((var4 Int)) (forall ((var5 Int)) (forall ((var6 Int)) (forall ((var7 Int)) (forall ((var8 Int)) (forall ((var9 Int)) (forall ((var10 Int)) (forall ((var11 Int)) (forall ((var12 Int)) (forall ((var13 Int)) (forall ((var14 Int)) (forall ((var15 Int)) (forall ((var16 Int)) (forall ((var17 Int)) (forall ((var18 Int)) (forall ((var19 Int)) (forall ((var20 Int)) (forall ((var21 Int)) (forall ((var22 Int)) (forall ((var23 Int)) (forall ((var24 Int)) (forall ((var25 Int)) (forall ((var26 Int)) (forall ((var27 Int)) (forall ((var28 Int)) (forall ((var29 Int)) (forall ((var30 Int)) (forall ((var31 Int)) (forall ((var32 Int)) (forall ((var33 Int)) (forall ((var34 Int)) (forall ((var35 Int)) (forall ((var36 Int)) (forall ((var37 Int)) (forall ((var38 Int)) (forall ((var39 Int)) (forall ((var40 Int)) (forall ((var41 Int)) (forall ((var42 Int)) (forall ((var43 Int)) (forall ((var44 Int)) (forall ((var45 Int)) (forall ((var46 Int)) (forall ((var47 Int)) (not (and (and (<= 0 (+ (* (- 1) var15 ) var4 ) ) (<= 0 var4 ) ) (and (predh65_7 var47 var46 var45 var44 var43 var42 var41 var40 var39 var38 var37 var36 var35 var34 var33 var32 var31 var30 var29 var28 var27 var26 var25 var24 var23 var22 var21 var20 var19 var18 var17 var16 var15 var14 var13 var12 var11 var10 var9 var8 var7 var6 var5 var4 var3 var2 var1 var0 ) (not (predh68_6 var47 var46 var45 var44 var43 var42 var41 var40 var39 var38 var37 var36 var35 var34 var33 var32 var31 var30 var29 var28 var27 var26 var25 var24 var23 var22 var21 var20 var19 var18 var17 var16 var15 var14 var13 var12 var11 var10 var9 var8 var7 var6 var5 var4 var3 var2 var1 var0 ) ) ) ) ) ) ) ) ) ) ) ) ) ) ) ) ) ) ) ) ) ) ) ) ) ) ) ) ) ) ) ) ) ) ) ) ) ) ) ) ) ) ) ) ) ) ) ) ) ) ) ) ) )
(assert (forall ((var0 Int)) (forall ((var1 Int)) (forall ((var2 Int)) (forall ((var3 Int)) (forall ((var4 Int)) (forall ((var5 Int)) (forall ((var6 Int)) (forall ((var7 Int)) (forall ((var8 Int)) (forall ((var9 Int)) (forall ((var10 Int)) (forall ((var11 Int)) (forall ((var12 Int)) (forall ((var13 Int)) (forall ((var14 Int)) (forall ((var15 Int)) (forall ((var16 Int)) (forall ((var17 Int)) (forall ((var18 Int)) (forall ((var19 Int)) (forall ((var20 Int)) (forall ((var21 Int)) (forall ((var22 Int)) (forall ((var23 Int)) (forall ((var24 Int)) (forall ((var25 Int)) (forall ((var26 Int)) (forall ((var27 Int)) (forall ((var28 Int)) (forall ((var29 Int)) (forall ((var30 Int)) (forall ((var31 Int)) (forall ((var32 Int)) (forall ((var33 Int)) (forall ((var34 Int)) (forall ((var35 Int)) (forall ((var36 Int)) (forall ((var37 Int)) (forall ((var38 Int)) (forall ((var39 Int)) (forall ((var40 Int)) (forall ((var41 Int)) (forall ((var42 Int)) (forall ((var43 Int)) (forall ((var44 Int)) (forall ((var45 Int)) (forall ((var46 Int)) (forall ((var47 Int)) (not (and (and (<= 0 (+ var15 (* (- 1) var5 ) ) ) (<= 0 var5 ) ) (and (predh62_8 var47 var46 var45 var44 var43 var42 var41 var40 var39 var38 var37 var36 var35 var34 var33 var32 var31 var30 var29 var28 var27 var26 var25 var24 var23 var22 var21 var20 var19 var18 var17 var16 var15 var14 var13 var12 var11 var10 var9 var8 var7 var6 var5 var4 var3 var2 var1 var0 ) (not (predh65_7 var47 var46 var45 var44 var43 var42 var41 var40 var39 var38 var37 var36 var35 var34 var33 var32 var31 var30 var29 var28 var27 var26 var25 var24 var23 var22 var21 var20 var19 var18 var17 var16 var15 var14 var13 var12 var11 var10 var9 var8 var7 var6 var5 var4 var3 var2 var1 var0 ) ) ) ) ) ) ) ) ) ) ) ) ) ) ) ) ) ) ) ) ) ) ) ) ) ) ) ) ) ) ) ) ) ) ) ) ) ) ) ) ) ) ) ) ) ) ) ) ) ) ) ) ) )
(assert (forall ((var0 Int)) (forall ((var1 Int)) (forall ((var2 Int)) (forall ((var3 Int)) (forall ((var4 Int)) (forall ((var5 Int)) (forall ((var6 Int)) (forall ((var7 Int)) (forall ((var8 Int)) (forall ((var9 Int)) (forall ((var10 Int)) (forall ((var11 Int)) (forall ((var12 Int)) (forall ((var13 Int)) (forall ((var14 Int)) (forall ((var15 Int)) (forall ((var16 Int)) (forall ((var17 Int)) (forall ((var18 Int)) (forall ((var19 Int)) (forall ((var20 Int)) (forall ((var21 Int)) (forall ((var22 Int)) (forall ((var23 Int)) (forall ((var24 Int)) (forall ((var25 Int)) (forall ((var26 Int)) (forall ((var27 Int)) (forall ((var28 Int)) (forall ((var29 Int)) (forall ((var30 Int)) (forall ((var31 Int)) (forall ((var32 Int)) (forall ((var33 Int)) (forall ((var34 Int)) (forall ((var35 Int)) (forall ((var36 Int)) (forall ((var37 Int)) (forall ((var38 Int)) (forall ((var39 Int)) (forall ((var40 Int)) (forall ((var41 Int)) (forall ((var42 Int)) (forall ((var43 Int)) (forall ((var44 Int)) (forall ((var45 Int)) (forall ((var46 Int)) (forall ((var47 Int)) (not (and (and (<= 0 (+ (* (- 1) var15 ) var8 ) ) (<= 0 var8 ) ) (and (predh59_9 var47 var46 var45 var44 var43 var42 var41 var40 var39 var38 var37 var36 var35 var34 var33 var32 var31 var30 var29 var28 var27 var26 var25 var24 var23 var22 var21 var20 var19 var18 var17 var16 var15 var14 var13 var12 var11 var10 var9 var8 var7 var6 var5 var4 var3 var2 var1 var0 ) (not (predh62_8 var47 var46 var45 var44 var43 var42 var41 var40 var39 var38 var37 var36 var35 var34 var33 var32 var31 var30 var29 var28 var27 var26 var25 var24 var23 var22 var21 var20 var19 var18 var17 var16 var15 var14 var13 var12 var11 var10 var9 var8 var7 var6 var5 var4 var3 var2 var1 var0 ) ) ) ) ) ) ) ) ) ) ) ) ) ) ) ) ) ) ) ) ) ) ) ) ) ) ) ) ) ) ) ) ) ) ) ) ) ) ) ) ) ) ) ) ) ) ) ) ) ) ) ) ) )
(assert (forall ((var0 Int)) (forall ((var1 Int)) (forall ((var2 Int)) (forall ((var3 Int)) (forall ((var4 Int)) (forall ((var5 Int)) (forall ((var6 Int)) (forall ((var7 Int)) (forall ((var8 Int)) (forall ((var9 Int)) (forall ((var10 Int)) (forall ((var11 Int)) (forall ((var12 Int)) (forall ((var13 Int)) (forall ((var14 Int)) (forall ((var15 Int)) (forall ((var16 Int)) (forall ((var17 Int)) (forall ((var18 Int)) (forall ((var19 Int)) (forall ((var20 Int)) (forall ((var21 Int)) (forall ((var22 Int)) (forall ((var23 Int)) (forall ((var24 Int)) (forall ((var25 Int)) (forall ((var26 Int)) (forall ((var27 Int)) (forall ((var28 Int)) (forall ((var29 Int)) (forall ((var30 Int)) (forall ((var31 Int)) (forall ((var32 Int)) (forall ((var33 Int)) (forall ((var34 Int)) (forall ((var35 Int)) (forall ((var36 Int)) (forall ((var37 Int)) (forall ((var38 Int)) (forall ((var39 Int)) (forall ((var40 Int)) (forall ((var41 Int)) (forall ((var42 Int)) (forall ((var43 Int)) (forall ((var44 Int)) (forall ((var45 Int)) (forall ((var46 Int)) (forall ((var47 Int)) (not (and (and (and (<= 0 (+ (+ var16 (* (- 1) var15 ) ) (* (- 1) 1 ) ) ) (<= 0 (+ var15 (* (- 1) var9 ) ) ) ) (<= 0 var9 ) ) (and (predh52_10 var47 var46 var45 var44 var43 var42 var41 var40 var39 var38 var37 var36 var35 var34 var33 var32 var31 var30 var29 var28 var27 var26 var25 var24 var23 var22 var21 var20 var19 var18 var17 var16 var15 var14 var13 var12 var11 var10 var9 var8 var7 var6 var5 var4 var3 var2 var1 var0 ) (not (predh59_9 var47 var46 var45 var44 var43 var42 var41 var40 var39 var38 var37 var36 var35 var34 var33 var32 var31 var30 var29 var28 var27 var26 var25 var24 var23 var22 var21 var20 var19 var18 var17 var16 var15 var14 var13 var12 var11 var10 var9 var8 var7 var6 var5 var4 var3 var2 var1 var0 ) ) ) ) ) ) ) ) ) ) ) ) ) ) ) ) ) ) ) ) ) ) ) ) ) ) ) ) ) ) ) ) ) ) ) ) ) ) ) ) ) ) ) ) ) ) ) ) ) ) ) ) ) )
(assert (forall ((var0 Int)) (forall ((var1 Int)) (forall ((var2 Int)) (forall ((var3 Int)) (forall ((var4 Int)) (forall ((var5 Int)) (forall ((var6 Int)) (forall ((var7 Int)) (forall ((var8 Int)) (forall ((var9 Int)) (forall ((var10 Int)) (forall ((var11 Int)) (forall ((var12 Int)) (forall ((var13 Int)) (forall ((var14 Int)) (forall ((var15 Int)) (forall ((var16 Int)) (forall ((var17 Int)) (forall ((var18 Int)) (forall ((var19 Int)) (forall ((var20 Int)) (forall ((var21 Int)) (forall ((var22 Int)) (forall ((var23 Int)) (forall ((var24 Int)) (forall ((var25 Int)) (forall ((var26 Int)) (forall ((var27 Int)) (forall ((var28 Int)) (forall ((var29 Int)) (forall ((var30 Int)) (forall ((var31 Int)) (forall ((var32 Int)) (forall ((var33 Int)) (forall ((var34 Int)) (forall ((var35 Int)) (forall ((var36 Int)) (forall ((var37 Int)) (forall ((var38 Int)) (forall ((var39 Int)) (forall ((var40 Int)) (forall ((var41 Int)) (forall ((var42 Int)) (forall ((var43 Int)) (forall ((var44 Int)) (forall ((var45 Int)) (forall ((var46 Int)) (forall ((var47 Int)) (not (and (predh47_11 var47 var46 var45 var44 var43 var42 var41 var40 var39 var38 var37 var36 var35 var34 var33 var32 var31 var30 var29 var28 var27 var26 var25 var24 var23 var22 var21 var20 var19 var18 var17 var16 var15 var14 var13 var12 var11 var10 var9 var8 var7 var6 var5 var4 var3 var2 var1 var0 ) (not (predh52_10 var47 var46 var45 var44 var43 var42 var41 var40 var39 var38 var37 var36 var35 var34 var33 var32 var31 var30 var29 var28 var27 var26 var25 var24 var23 var22 var21 var20 var19 var18 var17 var16 (* 2 1 ) var14 var13 var12 var11 var10 var9 var8 var7 var6 var5 var4 var3 var2 var1 var0 ) ) ) ) ) ) ) ) ) ) ) ) ) ) ) ) ) ) ) ) ) ) ) ) ) ) ) ) ) ) ) ) ) ) ) ) ) ) ) ) ) ) ) ) ) ) ) ) ) ) ) ) )
(assert (forall ((var0 Int)) (forall ((var1 Int)) (forall ((var2 Int)) (forall ((var3 Int)) (forall ((var4 Int)) (forall ((var5 Int)) (forall ((var6 Int)) (forall ((var7 Int)) (forall ((var8 Int)) (forall ((var9 Int)) (forall ((var10 Int)) (forall ((var11 Int)) (forall ((var12 Int)) (forall ((var13 Int)) (forall ((var14 Int)) (forall ((var15 Int)) (forall ((var16 Int)) (forall ((var17 Int)) (forall ((var18 Int)) (forall ((var19 Int)) (forall ((var20 Int)) (forall ((var21 Int)) (forall ((var22 Int)) (forall ((var23 Int)) (forall ((var24 Int)) (forall ((var25 Int)) (forall ((var26 Int)) (forall ((var27 Int)) (forall ((var28 Int)) (forall ((var29 Int)) (forall ((var30 Int)) (forall ((var31 Int)) (forall ((var32 Int)) (forall ((var33 Int)) (forall ((var34 Int)) (forall ((var35 Int)) (forall ((var36 Int)) (forall ((var37 Int)) (forall ((var38 Int)) (forall ((var39 Int)) (forall ((var40 Int)) (forall ((var41 Int)) (forall ((var42 Int)) (forall ((var43 Int)) (forall ((var44 Int)) (forall ((var45 Int)) (forall ((var46 Int)) (forall ((var47 Int)) (not (and (and (<= 0 (+ (* (- 1) var16 ) var4 ) ) (<= 0 var4 ) ) (and (predh44_12 var47 var46 var45 var44 var43 var42 var41 var40 var39 var38 var37 var36 var35 var34 var33 var32 var31 var30 var29 var28 var27 var26 var25 var24 var23 var22 var21 var20 var19 var18 var17 var16 var15 var14 var13 var12 var11 var10 var9 var8 var7 var6 var5 var4 var3 var2 var1 var0 ) (not (predh47_11 var47 var46 var45 var44 var43 var42 var41 var40 var39 var38 var37 var36 var35 var34 var33 var32 var31 var30 var29 var28 var27 var26 var25 var24 var23 var22 var21 var20 var19 var18 var17 var16 var15 var14 var13 var12 var11 var10 var9 var8 var7 var6 var5 var4 var3 var2 var1 var0 ) ) ) ) ) ) ) ) ) ) ) ) ) ) ) ) ) ) ) ) ) ) ) ) ) ) ) ) ) ) ) ) ) ) ) ) ) ) ) ) ) ) ) ) ) ) ) ) ) ) ) ) ) )
(assert (forall ((var0 Int)) (forall ((var1 Int)) (forall ((var2 Int)) (forall ((var3 Int)) (forall ((var4 Int)) (forall ((var5 Int)) (forall ((var6 Int)) (forall ((var7 Int)) (forall ((var8 Int)) (forall ((var9 Int)) (forall ((var10 Int)) (forall ((var11 Int)) (forall ((var12 Int)) (forall ((var13 Int)) (forall ((var14 Int)) (forall ((var15 Int)) (forall ((var16 Int)) (forall ((var17 Int)) (forall ((var18 Int)) (forall ((var19 Int)) (forall ((var20 Int)) (forall ((var21 Int)) (forall ((var22 Int)) (forall ((var23 Int)) (forall ((var24 Int)) (forall ((var25 Int)) (forall ((var26 Int)) (forall ((var27 Int)) (forall ((var28 Int)) (forall ((var29 Int)) (forall ((var30 Int)) (forall ((var31 Int)) (forall ((var32 Int)) (forall ((var33 Int)) (forall ((var34 Int)) (forall ((var35 Int)) (forall ((var36 Int)) (forall ((var37 Int)) (forall ((var38 Int)) (forall ((var39 Int)) (forall ((var40 Int)) (forall ((var41 Int)) (forall ((var42 Int)) (forall ((var43 Int)) (forall ((var44 Int)) (forall ((var45 Int)) (forall ((var46 Int)) (forall ((var47 Int)) (not (and (and (<= 0 (+ var16 (* (- 1) var5 ) ) ) (<= 0 var5 ) ) (and (predh41_13 var47 var46 var45 var44 var43 var42 var41 var40 var39 var38 var37 var36 var35 var34 var33 var32 var31 var30 var29 var28 var27 var26 var25 var24 var23 var22 var21 var20 var19 var18 var17 var16 var15 var14 var13 var12 var11 var10 var9 var8 var7 var6 var5 var4 var3 var2 var1 var0 ) (not (predh44_12 var47 var46 var45 var44 var43 var42 var41 var40 var39 var38 var37 var36 var35 var34 var33 var32 var31 var30 var29 var28 var27 var26 var25 var24 var23 var22 var21 var20 var19 var18 var17 var16 var15 var14 var13 var12 var11 var10 var9 var8 var7 var6 var5 var4 var3 var2 var1 var0 ) ) ) ) ) ) ) ) ) ) ) ) ) ) ) ) ) ) ) ) ) ) ) ) ) ) ) ) ) ) ) ) ) ) ) ) ) ) ) ) ) ) ) ) ) ) ) ) ) ) ) ) ) )
(assert (forall ((var0 Int)) (forall ((var1 Int)) (forall ((var2 Int)) (forall ((var3 Int)) (forall ((var4 Int)) (forall ((var5 Int)) (forall ((var6 Int)) (forall ((var7 Int)) (forall ((var8 Int)) (forall ((var9 Int)) (forall ((var10 Int)) (forall ((var11 Int)) (forall ((var12 Int)) (forall ((var13 Int)) (forall ((var14 Int)) (forall ((var15 Int)) (forall ((var16 Int)) (forall ((var17 Int)) (forall ((var18 Int)) (forall ((var19 Int)) (forall ((var20 Int)) (forall ((var21 Int)) (forall ((var22 Int)) (forall ((var23 Int)) (forall ((var24 Int)) (forall ((var25 Int)) (forall ((var26 Int)) (forall ((var27 Int)) (forall ((var28 Int)) (forall ((var29 Int)) (forall ((var30 Int)) (forall ((var31 Int)) (forall ((var32 Int)) (forall ((var33 Int)) (forall ((var34 Int)) (forall ((var35 Int)) (forall ((var36 Int)) (forall ((var37 Int)) (forall ((var38 Int)) (forall ((var39 Int)) (forall ((var40 Int)) (forall ((var41 Int)) (forall ((var42 Int)) (forall ((var43 Int)) (forall ((var44 Int)) (forall ((var45 Int)) (forall ((var46 Int)) (forall ((var47 Int)) (not (and (and (<= 0 (+ (* (- 1) var16 ) var8 ) ) (<= 0 var8 ) ) (and (predh38_14 var47 var46 var45 var44 var43 var42 var41 var40 var39 var38 var37 var36 var35 var34 var33 var32 var31 var30 var29 var28 var27 var26 var25 var24 var23 var22 var21 var20 var19 var18 var17 var16 var15 var14 var13 var12 var11 var10 var9 var8 var7 var6 var5 var4 var3 var2 var1 var0 ) (not (predh41_13 var47 var46 var45 var44 var43 var42 var41 var40 var39 var38 var37 var36 var35 var34 var33 var32 var31 var30 var29 var28 var27 var26 var25 var24 var23 var22 var21 var20 var19 var18 var17 var16 var15 var14 var13 var12 var11 var10 var9 var8 var7 var6 var5 var4 var3 var2 var1 var0 ) ) ) ) ) ) ) ) ) ) ) ) ) ) ) ) ) ) ) ) ) ) ) ) ) ) ) ) ) ) ) ) ) ) ) ) ) ) ) ) ) ) ) ) ) ) ) ) ) ) ) ) ) )
(assert (forall ((var0 Int)) (forall ((var1 Int)) (forall ((var2 Int)) (forall ((var3 Int)) (forall ((var4 Int)) (forall ((var5 Int)) (forall ((var6 Int)) (forall ((var7 Int)) (forall ((var8 Int)) (forall ((var9 Int)) (forall ((var10 Int)) (forall ((var11 Int)) (forall ((var12 Int)) (forall ((var13 Int)) (forall ((var14 Int)) (forall ((var15 Int)) (forall ((var16 Int)) (forall ((var17 Int)) (forall ((var18 Int)) (forall ((var19 Int)) (forall ((var20 Int)) (forall ((var21 Int)) (forall ((var22 Int)) (forall ((var23 Int)) (forall ((var24 Int)) (forall ((var25 Int)) (forall ((var26 Int)) (forall ((var27 Int)) (forall ((var28 Int)) (forall ((var29 Int)) (forall ((var30 Int)) (forall ((var31 Int)) (forall ((var32 Int)) (forall ((var33 Int)) (forall ((var34 Int)) (forall ((var35 Int)) (forall ((var36 Int)) (forall ((var37 Int)) (forall ((var38 Int)) (forall ((var39 Int)) (forall ((var40 Int)) (forall ((var41 Int)) (forall ((var42 Int)) (forall ((var43 Int)) (forall ((var44 Int)) (forall ((var45 Int)) (forall ((var46 Int)) (forall ((var47 Int)) (forall ((var48 Int)) (not (and (<= 0 (+ var16 (* (- 3) 1 ) ) ) (and (predh6_15 var47 var46 var45 var44 var43 var42 var41 var40 var39 var38 var37 var36 var35 var34 var33 var32 var31 var30 var29 var28 var27 var26 var25 var24 var23 var22 var21 var20 var19 var18 var17 var16 var15 var14 var13 var12 var11 var10 var9 var8 var7 var6 var5 var4 var3 var2 var1 var0 ) (not (predh38_14 var47 var46 var45 var44 var43 var42 var41 var40 var39 var38 var37 var36 var35 var34 var33 var32 var31 var30 var29 var28 var27 var26 var25 var24 var23 var22 var21 var20 var19 var18 var17 var16 var15 var14 var48 var12 var11 var10 1 var16 1 var16 1 var16 1 var16 1 var16 ) ) ) ) ) ) ) ) ) ) ) ) ) ) ) ) ) ) ) ) ) ) ) ) ) ) ) ) ) ) ) ) ) ) ) ) ) ) ) ) ) ) ) ) ) ) ) ) ) ) ) ) ) ) )
(assert (forall ((var0 Int)) (forall ((var1 Int)) (forall ((var2 Int)) (forall ((var3 Int)) (forall ((var4 Int)) (forall ((var5 Int)) (forall ((var6 Int)) (forall ((var7 Int)) (forall ((var8 Int)) (forall ((var9 Int)) (forall ((var10 Int)) (forall ((var11 Int)) (forall ((var12 Int)) (forall ((var13 Int)) (forall ((var14 Int)) (forall ((var15 Int)) (forall ((var16 Int)) (forall ((var17 Int)) (forall ((var18 Int)) (forall ((var19 Int)) (forall ((var20 Int)) (forall ((var21 Int)) (forall ((var22 Int)) (forall ((var23 Int)) (not (and (<= 0 (+ var16 (* (- 3) 1 ) ) ) (not (predh6_15 var23 var22 var21 var20 var19 var18 var17 var16 var15 var14 var13 var12 var11 var10 var9 var8 var7 var6 var5 var4 var3 var2 var1 var0 var23 var22 var21 var20 var19 var18 var17 var16 var15 var14 var13 var12 var11 var10 var9 var8 var7 var6 var5 var4 var3 var2 var1 var0 ) ) ) ) ) ) ) ) ) ) ) ) ) ) ) ) ) ) ) ) ) ) ) ) ) ) ) ) )
(check-sat)
